(declare-const conc0 Real)
(assert (and (>= conc0 0) (<= conc0 100)))
(declare-const conc1 Real)
(assert (and (>= conc1 0) (<= conc1 100)))
(declare-const conc2 Real)
(assert (and (>= conc2 0) (<= conc2 100)))
(declare-const conc3 Real)
(assert (and (>= conc3 0) (<= conc3 100)))
(declare-const conc4 Real)
(assert (and (>= conc4 0) (<= conc4 100)))
(declare-const coef0 Real)
(assert (= coef0 (- (* 0.3062633574 conc0 conc1 ) (* 0.2482545823 conc2 ))))
(declare-const coef1 Real)
(assert (= coef1 (- (* 0.0707227662 conc0 conc2 ) (* 0.1657154411 conc3 ))))
(declare-const coef3 Real)
(assert (= coef3 (- (* 0.2284028530 conc0 conc3 ) (* 0.1184950024 conc4 ))))
(declare-const coef4 Real)
(assert (= coef4 (- (* 0.2613496780 conc1 conc2 ) (* 0.3678794503 conc4 ))))
(assert (> (+ (- coef0) (- coef1) (- coef3) 0) 0.0001000000))
(assert (> (+ coef0 (- coef1) (- coef4) 0) 0.0001000000))
(assert (> (+ coef1 (- coef3) 0) 0.0001000000))
(assert (> (+ coef3 coef4 0) 0.0001000000))
(check-sat)
(get-model)
